c b=4,c=899
p cnf 18 78
1 3 4 -8 0
2 4 -9 0
2 3 4 -15 0
1 3 4 -16 0
1 2 4 -17 0
1 3 -4 8 0
1 3 -4 9 0
2 3 -4 15 0
2 -4 16 0
2 3 -4 17 0
2 3 -7 0
1 3 -10 0
1 2 3 -14 0
2 3 -18 0
2 -3 4 8 0
4 -10 0
1 -3 4 15 0
4 -18 0
2 -3 -4 -8 0
-3 -4 10 0
1 -3 -4 -15 0
-3 -4 18 0
2 -3 7 0
2 -3 -9 0
1 2 -3 14 0
1 2 -3 16 0
1 2 -3 -17 0
1 2 -6 0
1 2 -13 0
1 -2 4 -8 0
3 4 -9 0
1 -2 4 15 0
1 -2 -4 8 0
1 -2 -4 -15 0
-2 -4 18 0
1 -2 3 7 0
-2 3 14 0
-2 3 -17 0
-2 -3 4 9 0
-3 -4 -9 0
1 -2 -3 -7 0
-2 -3 -14 0
-2 -3 17 0
1 -2 6 0
1 -2 13 0
1 -2 -16 0
1 -5 0
1 -12 0
2 3 4 -8 0
-1 4 -15 0
-1 2 4 -16 0
3 4 -17 0
2 3 -4 8 0
2 3 -4 9 0
-1 -4 15 0
-1 3 -7 0
2 3 -10 0
-1 3 14 0
-1 -3 4 17 0
2 -3 -4 -17 0
-1 -3 7 0
-1 -3 -14 0
-1 2 6 0
-1 2 13 0
-1 -2 3 4 8 0
-1 -2 4 16 0
-1 -2 3 -4 -8 0
-1 -2 -4 10 0
-2 -4 -16 0
-1 -2 3 -9 0
-2 -3 4 -8 0
-2 -3 -4 8 0
-1 -2 -4 -9 0
-1 -2 -6 0
-1 -2 -13 0
-1 5 0
-1 12 0
-11 0
